91
28
0 31 32 36 38 39 40 44 46 51 52 55 56 58 60 61 63 64 66 68 69 75 76 77 79 81 82 85 90
1 28 29 32 37 38 40 43 44 49 52 53 55 56 59 60 61 63 66 67 74 75 76 77 81 84 89
2 29 30 31 32 36 38 39 40 41 42 44 45 46 49 52 53 54 55 56 58 60 61 63 66 68 69 73 74 75 77 78 79 84 86 88
3 28 29 31 32 34 37 38 40 44 46 47 48 52 53 55 56 58 60 61 62 63 66 68 69 70 73 75 78 79 81 84 85 90
4 28 29 30 32 34 37 38 40 42 46 48 50 52 53 54 55 58 60 62 63 66 68 69 74 75 76 79 84 85 86 90
5 28 29 30 31 32 35 36 37 39 40 44 46 52 53 54 56 60 61 62 63 68 69 75 76 78 79 81 88 90
6 28 29 31 32 34 35 38 40 44 45 46 47 48 49 52 55 56 58 60 61 63 65 66 68 73 74 75 76 81 82 90
7 29 34 37 38 39 46 48 49 52 53 54 55 63 65 69 70 73 76 77 79 82 90
8 29 30 31 32 33 37 38 41 42 44 45 52 53 54 56 60 62 63 66 68 69 70 71 72 74 75 76 77 78 90
9 31 32 37 40 44 46 48 49 54 60 63 66 68 73 74 75 77 82 87
10 29 31 32 39 44 45 46 49 51 56 62 66 70 72 73 75 76 79 84 88 90
11 31 32 36 38 39 40 41 44 46 49 53 58 60 63 66 69 70 74 75 78 79 82 84 85
12 29 38 41 44 46 47 48 52 54 55 58 60 61 63 68 74 75 76 86 88 89
13 29 36 38 40 41 48 52 53 55 58 60 61 62 68 69 73 77 79 82 85 90
14 28 29 37 38 39 40 44 45 49 51 52 54 55 56 63 66 71 73 74 75 76 77 78 83 84 90
15 28 30 37 39 42 48 52 53 56 57 62 69 73 74 75 76 78 79 81 82 84 90
16 30 34 36 41 44 48 53 54 55 56 60 62 63 66 75 77 79 81 85 88 90
17 28 30 31 33 34 35 38 39 40 46 54 56 60 62 63 69 71 75 76 77 86
18 30 33 42 43 46 53 67 73 78 79 82 83 84 88 90
19 28 29 40 41 46 48 53 54 56 58 60 63 65 66 68 74 75 78 80 81
20 29 32 37 42 46 48 49 51 54 56 61 65 68 71 76 77 82 83 84 89
21 31 33 34 38 40 42 43 44 45 48 51 55 73 74 78 79 86
22 32 37 51 56 60 68 70 74
23 32 38 43 51 57 62 66 68 77 79 88 89
24 32 43 63 69 83 86
25 48 49 54 57 68 73
26 56 57 75 80 86
27 39 41 53 59 60 72
